num_offers = 20;
num_halls = 10;
start=[18,35,16,29,67,18,14,39,56,27,35,26,25,21,4,55,21,14,11,7];
end=[70,39,53,39,90,58,40,54,96,73,97,62,80,82,8,76,55,75,70,62];
price=[1999,381,2830,400,1989,2010,1271,1401,1700,3669,1281,981,1254,4027,250,1429,1438,2325,2468,1731];
requirement=[257,409,263,323,546,893,213,740,494,534,320,586,538,603,548,841,937,243,539,363];
capacity=[946,699,711,935,963,482,709,635,965,814];
